(declare-const X String)
; software.*com\x2Findex\.php\?tpid=\s+Host\x3A\x2Ftoolbar\x2Fsupremetb
(assert (str.in_re X (re.++ (str.to_re "software") (re.* re.allchar) (str.to_re "com/index.php?tpid=") (re.+ (re.union (str.to_re " ") (str.to_re "\u{9}") (str.to_re "\u{a}") (str.to_re "\u{c}") (str.to_re "\u{d}"))) (str.to_re "Host:/toolbar/supremetb\u{a}"))))
(check-sat)

(exit)
